experiment/data/lkh-res/Vrp-Set-Golden-n361/Vrp-Set-Golden-n361-lkh/1.lkh1.vrp
NAME : 1
COMMENT : CVRP Instance
TYPE : CVRP
DIMENSION : 361
EDGE_WEIGHT_TYPE : EUC_2D
CAPACITY : 900
NODE_COORD_SECTION
1	0	0
2	3000	0
3	2954	521
4	2819	1026
5	2598	1500
6	2298	1928
7	1928	2298
8	1500	2598
9	1026	2819
10	521	2954
11	0	3000
12	-520	2954
13	-1025	2819
14	-1499	2598
15	-1927	2298
16	-2297	1928
17	-2597	1500
18	-2818	1026
19	-2953	521
20	-2999	0
21	-2953	-520
22	-2818	-1025
23	-2597	-1499
24	-2297	-1927
25	-1927	-2297
26	-1499	-2597
27	-1025	-2818
28	-520	-2953
29	0	-2999
30	521	-2953
31	1026	-2818
32	1500	-2597
33	1928	-2297
34	2298	-1927
35	2598	-1499
36	2819	-1025
37	2954	-520
38	6000	0
39	5909	1042
40	5638	2052
41	5196	3000
42	4596	3857
43	3857	4596
44	3000	5196
45	2052	5638
46	1042	5909
47	0	6000
48	-1041	5909
49	-2051	5638
50	-2999	5196
51	-3856	4596
52	-4595	3857
53	-5195	3000
54	-5637	2052
55	-5908	1042
56	-5999	0
57	-5908	-1041
58	-5637	-2051
59	-5195	-2999
60	-4595	-3856
61	-3856	-4595
62	-2999	-5195
63	-2051	-5637
64	-1041	-5908
65	0	-5999
66	1042	-5908
67	2052	-5637
68	3000	-5195
69	3857	-4595
70	4596	-3856
71	5196	-2999
72	5638	-2051
73	5909	-1041
74	9000	0
75	8863	1563
76	8457	3078
77	7794	4500
78	6894	5785
79	5785	6894
80	4500	7794
81	3078	8457
82	1563	8863
83	0	9000
84	-1562	8863
85	-3077	8457
86	-4499	7794
87	-5784	6894
88	-6893	5785
89	-7793	4500
90	-8456	3078
91	-8862	1563
92	-8999	0
93	-8862	-1562
94	-8456	-3077
95	-7793	-4499
96	-6893	-5784
97	-5784	-6893
98	-4499	-7793
99	-3077	-8456
100	-1562	-8862
101	0	-8999
102	1563	-8862
103	3078	-8456
104	4500	-7793
105	5785	-6893
106	6894	-5784
107	7794	-4499
108	8457	-3077
109	8863	-1562
110	12000	0
111	11818	2084
112	11276	4104
113	10392	6000
114	9193	7713
115	7713	9193
116	6000	10392
117	4104	11276
118	2084	11818
119	0	12000
120	-2083	11818
121	-4103	11276
122	-5999	10392
123	-7712	9193
124	-9192	7713
125	-10391	6000
126	-11275	4104
127	-11817	2084
128	-11999	0
129	-11817	-2083
130	-11275	-4103
131	-10391	-5999
132	-9192	-7712
133	-7712	-9192
134	-5999	-10391
135	-4103	-11275
136	-2083	-11817
137	0	-11999
138	2084	-11817
139	4104	-11275
140	6000	-10391
141	7713	-9192
142	9193	-7712
143	10392	-5999
144	11276	-4103
145	11818	-2083
146	15000	0
147	14772	2605
148	14095	5130
149	12990	7500
150	11491	9642
151	9642	11491
152	7500	12990
153	5130	14095
154	2605	14772
155	0	15000
156	-2604	14772
157	-5129	14095
158	-7499	12990
159	-9641	11491
160	-11490	9642
161	-12989	7500
162	-14094	5130
163	-14771	2605
164	-14999	0
165	-14771	-2604
166	-14094	-5129
167	-12989	-7499
168	-11490	-9641
169	-9641	-11490
170	-7499	-12989
171	-5129	-14094
172	-2604	-14771
173	0	-14999
174	2605	-14771
175	5130	-14094
176	7500	-12989
177	9642	-11490
178	11491	-9641
179	12990	-7499
180	14095	-5129
181	14772	-2604
182	18000	0
183	17727	3126
184	16914	6156
185	15588	9000
186	13789	11570
187	11570	13789
188	9000	15588
189	6156	16914
190	3126	17727
191	0	18000
192	-3125	17727
193	-6155	16914
194	-8999	15588
195	-11569	13789
196	-13788	11570
197	-15587	9000
198	-16913	6156
199	-17726	3126
200	-17999	0
201	-17726	-3125
202	-16913	-6155
203	-15587	-8999
204	-13788	-11569
205	-11569	-13788
206	-8999	-15587
207	-6155	-16913
208	-3125	-17726
209	0	-17999
210	3126	-17726
211	6156	-16913
212	9000	-15587
213	11570	-13788
214	13789	-11569
215	15588	-8999
216	16914	-6155
217	17727	-3125
218	21000	0
219	20681	3647
220	19734	7182
221	18187	10500
222	16087	13499
223	13499	16087
224	10500	18187
225	7182	19734
226	3647	20681
227	0	21000
228	-3646	20681
229	-7181	19734
230	-10499	18187
231	-13498	16087
232	-16086	13499
233	-18186	10500
234	-19733	7182
235	-20680	3647
236	-20999	0
237	-20680	-3646
238	-19733	-7181
239	-18186	-10499
240	-16086	-13498
241	-13498	-16086
242	-10499	-18186
243	-7181	-19733
244	-3646	-20680
245	0	-20999
246	3647	-20680
247	7182	-19733
248	10500	-18186
249	13499	-16086
250	16087	-13498
251	18187	-10499
252	19734	-7181
253	20681	-3646
254	24000	0
255	23635	4168
256	22553	8208
257	20785	12000
258	18385	15427
259	15427	18385
260	12000	20785
261	8208	22553
262	4168	23635
263	0	24000
264	-4167	23635
265	-8207	22553
266	-11999	20785
267	-15426	18385
268	-18384	15427
269	-20784	12000
270	-22552	8208
271	-23634	4168
272	-23999	0
273	-23634	-4167
274	-22552	-8207
275	-20784	-11999
276	-18384	-15426
277	-15426	-18384
278	-11999	-20784
279	-8207	-22552
280	-4167	-23634
281	0	-23999
282	4168	-23634
283	8208	-22552
284	12000	-20784
285	15427	-18384
286	18385	-15426
287	20785	-11999
288	22553	-8207
289	23635	-4167
290	27000	0
291	26590	4689
292	25372	9235
293	23383	13500
294	20683	17355
295	17355	20683
296	13500	23383
297	9235	25372
298	4689	26590
299	0	27000
300	-4688	26590
301	-9234	25372
302	-13499	23383
303	-17354	20683
304	-20682	17355
305	-23382	13500
306	-25371	9235
307	-26589	4689
308	-26999	0
309	-26589	-4688
310	-25371	-9234
311	-23382	-13499
312	-20682	-17354
313	-17354	-20682
314	-13499	-23382
315	-9234	-25371
316	-4688	-26589
317	0	-26999
318	4689	-26589
319	9235	-25371
320	13500	-23382
321	17355	-20682
322	20683	-17354
323	23383	-13499
324	25372	-9234
325	26590	-4688
326	30000	0
327	29544	5209
328	28191	10261
329	25981	15000
330	22981	19284
331	19284	22981
332	15000	25981
333	10261	28191
334	5209	29544
335	0	30000
336	-5208	29544
337	-10260	28191
338	-14999	25981
339	-19283	22981
340	-22980	19284
341	-25980	15000
342	-28190	10261
343	-29543	5209
344	-29999	0
345	-29543	-5208
346	-28190	-10260
347	-25980	-14999
348	-22980	-19283
349	-19283	-22980
350	-14999	-25980
351	-10260	-28190
352	-5208	-29543
353	0	-29999
354	5209	-29543
355	10261	-28190
356	15000	-25980
357	19284	-22980
358	22981	-19283
359	25981	-14999
360	28191	-10260
361	29544	-5208
DEMAND_SECTION
1	0
2	10
3	30
4	30
5	10
6	10
7	30
8	30
9	10
10	10
11	30
12	30
13	10
14	10
15	30
16	30
17	10
18	10
19	30
20	30
21	10
22	10
23	30
24	30
25	10
26	10
27	30
28	30
29	10
30	10
31	30
32	30
33	10
34	10
35	30
36	30
37	10
38	10
39	30
40	30
41	10
42	10
43	30
44	30
45	10
46	10
47	30
48	30
49	10
50	10
51	30
52	30
53	10
54	10
55	30
56	30
57	10
58	10
59	30
60	30
61	10
62	10
63	30
64	30
65	10
66	10
67	30
68	30
69	10
70	10
71	30
72	30
73	10
74	10
75	30
76	30
77	10
78	10
79	30
80	30
81	10
82	10
83	30
84	30
85	10
86	10
87	30
88	30
89	10
90	10
91	30
92	30
93	10
94	10
95	30
96	30
97	10
98	10
99	30
100	30
101	10
102	10
103	30
104	30
105	10
106	10
107	30
108	30
109	10
110	10
111	30
112	30
113	10
114	10
115	30
116	30
117	10
118	10
119	30
120	30
121	10
122	10
123	30
124	30
125	10
126	10
127	30
128	30
129	10
130	10
131	30
132	30
133	10
134	10
135	30
136	30
137	10
138	10
139	30
140	30
141	10
142	10
143	30
144	30
145	10
146	10
147	30
148	30
149	10
150	10
151	30
152	30
153	10
154	10
155	30
156	30
157	10
158	10
159	30
160	30
161	10
162	10
163	30
164	30
165	10
166	10
167	30
168	30
169	10
170	10
171	30
172	30
173	10
174	10
175	30
176	30
177	10
178	10
179	30
180	30
181	10
182	10
183	30
184	30
185	10
186	10
187	30
188	30
189	10
190	10
191	30
192	30
193	10
194	10
195	30
196	30
197	10
198	10
199	30
200	30
201	10
202	10
203	30
204	30
205	10
206	10
207	30
208	30
209	10
210	10
211	30
212	30
213	10
214	10
215	30
216	30
217	10
218	10
219	30
220	30
221	10
222	10
223	30
224	30
225	10
226	10
227	30
228	30
229	10
230	10
231	30
232	30
233	10
234	10
235	30
236	30
237	10
238	10
239	30
240	30
241	10
242	10
243	30
244	30
245	10
246	10
247	30
248	30
249	10
250	10
251	30
252	30
253	10
254	10
255	30
256	30
257	10
258	10
259	30
260	30
261	10
262	10
263	30
264	30
265	10
266	10
267	30
268	30
269	10
270	10
271	30
272	30
273	10
274	10
275	30
276	30
277	10
278	10
279	30
280	30
281	10
282	10
283	30
284	30
285	10
286	10
287	30
288	30
289	10
290	10
291	30
292	30
293	10
294	10
295	30
296	30
297	10
298	10
299	30
300	30
301	10
302	10
303	30
304	30
305	10
306	10
307	30
308	30
309	10
310	10
311	30
312	30
313	10
314	10
315	30
316	30
317	10
318	10
319	30
320	30
321	10
322	10
323	30
324	30
325	10
326	10
327	30
328	30
329	10
330	10
331	30
332	30
333	10
334	10
335	30
336	30
337	10
338	10
339	30
340	30
341	10
342	10
343	30
344	30
345	10
346	10
347	30
348	30
349	10
350	10
351	30
352	30
353	10
354	10
355	30
356	30
357	10
358	10
359	30
360	30
361	10
DEPOT_SECTION
1
-1
EOF
