experiment/data/lkh-res/Vrp-Set-Golden-n361/Vrp-Set-Golden-n361-lkh/1.lkh1.log
PARAMETER_FILE = baseline_results/cvrp_lkh/Vrp-Set-Golden-n361/Vrp-Set-Golden-n361-lkh/1.lkh1.par
Reading PROBLEM_FILE: "baseline_results/cvrp_lkh/Vrp-Set-Golden-n361/Vrp-Set-Golden-n361-lkh/1.lkh1.vrp" ... done
ASCENT_CANDIDATES = 50
BACKBONE_TRIALS = 0
BACKTRACKING = NO
# BWTSP =
# CANDIDATE_FILE =
CANDIDATE_SET_TYPE = ALPHA
# DISTANCE =
DEPOT = 1
# EDGE_FILE =
EXCESS = 0.00277008
EXTERNAL_SALESMEN = 0
EXTRA_CANDIDATES = 0 
EXTRA_CANDIDATE_SET_TYPE = QUADRANT
GAIN23 = NO
GAIN_CRITERION = YES
INITIAL_PERIOD = 180
INITIAL_STEP_SIZE = 1
INITIAL_TOUR_ALGORITHM = WALK
# INITIAL_TOUR_FILE = 
INITIAL_TOUR_FRACTION = 1.000
# INPUT_TOUR_FILE = 
KICK_TYPE = 4
KICKS = 1
# MAX_BREADTH =
MAKESPAN = NO
MAX_CANDIDATES = 5 
MAX_SWAPS = 0
MAX_TRIALS = 10000
# MERGE_TOUR_FILE =
MOVE_TYPE = 5 SPECIAL
MTSP_MIN_SIZE = 1
MTSP_MAX_SIZE = 360
# MTSP_SOLUTION_FILE = 
# NONSEQUENTIAL_MOVE_TYPE = 5
# OPTIMUM =
OUTPUT_TOUR_FILE = baseline_results/cvrp_lkh/Vrp-Set-Golden-n361/Vrp-Set-Golden-n361-lkh/1.lkh1.tour
PATCHING_A = 1 
PATCHING_C = 0 
# PI_FILE = 
POPMUSIC_INITIAL_TOUR = NO
POPMUSIC_MAX_NEIGHBORS = 5
POPMUSIC_SAMPLE_SIZE = 10
POPMUSIC_SOLUTIONS = 50
POPMUSIC_TRIALS = 1
POPULATION_SIZE = 10
PRECISION = 100
PROBLEM_FILE = baseline_results/cvrp_lkh/Vrp-Set-Golden-n361/Vrp-Set-Golden-n361-lkh/1.lkh1.vrp
RECOMBINATION = IPT
RESTRICTED_SEARCH = YES
RUNS = 1
SALESMEN = 8
SCALE = 1
SEED = 1234
# SINTEF_SOLUTION_FILE = 
STOP_AT_OPTIMUM = YES
SUBGRADIENT = YES
# SUBPROBLEM_SIZE =
# SUBPROBLEM_TOUR_FILE = 
SUBSEQUENT_MOVE_TYPE = 5 SPECIAL
SUBSEQUENT_PATCHING = YES
# TIME_LIMIT =
# TOTAL_TIME_LIMIT =
# TOUR_FILE = 
TRACE_LEVEL = 1
VEHICLES = 8

Lower bound = 918751.2, Ascent time = 0.19 sec.
Cand.min = 5, Cand.avg = 5.0, Cand.max = 5
Preprocessing time = 0.20 sec.
* 1: Cost = 0_1201671, Time = 0.05 sec. 
Writing OUTPUT_TOUR_FILE: "baseline_results/cvrp_lkh/Vrp-Set-Golden-n361/Vrp-Set-Golden-n361-lkh/1.lkh1.tour" ... done
* 4: Cost = 0_1177378, Time = 0.06 sec. 
Writing OUTPUT_TOUR_FILE: "baseline_results/cvrp_lkh/Vrp-Set-Golden-n361/Vrp-Set-Golden-n361-lkh/1.lkh1.tour" ... done
* 5: Cost = 0_1127395, Time = 0.09 sec. 
Writing OUTPUT_TOUR_FILE: "baseline_results/cvrp_lkh/Vrp-Set-Golden-n361/Vrp-Set-Golden-n361-lkh/1.lkh1.tour" ... done
* 6: Cost = 0_1124656, Time = 0.12 sec. 
Writing OUTPUT_TOUR_FILE: "baseline_results/cvrp_lkh/Vrp-Set-Golden-n361/Vrp-Set-Golden-n361-lkh/1.lkh1.tour" ... done
* 7: Cost = 0_1113504, Time = 0.13 sec. 
Writing OUTPUT_TOUR_FILE: "baseline_results/cvrp_lkh/Vrp-Set-Golden-n361/Vrp-Set-Golden-n361-lkh/1.lkh1.tour" ... done
* 8: Cost = 0_1107744, Time = 0.14 sec. 
Writing OUTPUT_TOUR_FILE: "baseline_results/cvrp_lkh/Vrp-Set-Golden-n361/Vrp-Set-Golden-n361-lkh/1.lkh1.tour" ... done
* 12: Cost = 0_1105241, Time = 0.16 sec. 
Writing OUTPUT_TOUR_FILE: "baseline_results/cvrp_lkh/Vrp-Set-Golden-n361/Vrp-Set-Golden-n361-lkh/1.lkh1.tour" ... done
* 16: Cost = 0_1098641, Time = 0.16 sec. 
Writing OUTPUT_TOUR_FILE: "baseline_results/cvrp_lkh/Vrp-Set-Golden-n361/Vrp-Set-Golden-n361-lkh/1.lkh1.tour" ... done
* 18: Cost = 0_1093305, Time = 0.21 sec. 
Writing OUTPUT_TOUR_FILE: "baseline_results/cvrp_lkh/Vrp-Set-Golden-n361/Vrp-Set-Golden-n361-lkh/1.lkh1.tour" ... done
* 19: Cost = 0_1085802, Time = 0.22 sec. 
Writing OUTPUT_TOUR_FILE: "baseline_results/cvrp_lkh/Vrp-Set-Golden-n361/Vrp-Set-Golden-n361-lkh/1.lkh1.tour" ... done
* 20: Cost = 0_1082354, Time = 0.23 sec. 
Writing OUTPUT_TOUR_FILE: "baseline_results/cvrp_lkh/Vrp-Set-Golden-n361/Vrp-Set-Golden-n361-lkh/1.lkh1.tour" ... done
* 27: Cost = 0_1081269, Time = 0.28 sec. 
Writing OUTPUT_TOUR_FILE: "baseline_results/cvrp_lkh/Vrp-Set-Golden-n361/Vrp-Set-Golden-n361-lkh/1.lkh1.tour" ... done
* 37: Cost = 0_1078513, Time = 0.32 sec. 
Writing OUTPUT_TOUR_FILE: "baseline_results/cvrp_lkh/Vrp-Set-Golden-n361/Vrp-Set-Golden-n361-lkh/1.lkh1.tour" ... done
* 38: Cost = 0_1075652, Time = 0.34 sec. 
Writing OUTPUT_TOUR_FILE: "baseline_results/cvrp_lkh/Vrp-Set-Golden-n361/Vrp-Set-Golden-n361-lkh/1.lkh1.tour" ... done
* 39: Cost = 0_1073560, Time = 0.34 sec. 
Writing OUTPUT_TOUR_FILE: "baseline_results/cvrp_lkh/Vrp-Set-Golden-n361/Vrp-Set-Golden-n361-lkh/1.lkh1.tour" ... done
* 40: Cost = 0_1073492, Time = 0.35 sec. 
Writing OUTPUT_TOUR_FILE: "baseline_results/cvrp_lkh/Vrp-Set-Golden-n361/Vrp-Set-Golden-n361-lkh/1.lkh1.tour" ... done
* 42: Cost = 0_1073409, Time = 0.36 sec. 
Writing OUTPUT_TOUR_FILE: "baseline_results/cvrp_lkh/Vrp-Set-Golden-n361/Vrp-Set-Golden-n361-lkh/1.lkh1.tour" ... done
* 45: Cost = 0_1072616, Time = 0.41 sec. 
Writing OUTPUT_TOUR_FILE: "baseline_results/cvrp_lkh/Vrp-Set-Golden-n361/Vrp-Set-Golden-n361-lkh/1.lkh1.tour" ... done
* 53: Cost = 0_1065251, Time = 0.45 sec. 
Writing OUTPUT_TOUR_FILE: "baseline_results/cvrp_lkh/Vrp-Set-Golden-n361/Vrp-Set-Golden-n361-lkh/1.lkh1.tour" ... done
* 59: Cost = 0_1062823, Time = 0.48 sec. 
Writing OUTPUT_TOUR_FILE: "baseline_results/cvrp_lkh/Vrp-Set-Golden-n361/Vrp-Set-Golden-n361-lkh/1.lkh1.tour" ... done
* 64: Cost = 0_1061109, Time = 0.48 sec. 
Writing OUTPUT_TOUR_FILE: "baseline_results/cvrp_lkh/Vrp-Set-Golden-n361/Vrp-Set-Golden-n361-lkh/1.lkh1.tour" ... done
* 66: Cost = 0_1055684, Time = 0.49 sec. 
Writing OUTPUT_TOUR_FILE: "baseline_results/cvrp_lkh/Vrp-Set-Golden-n361/Vrp-Set-Golden-n361-lkh/1.lkh1.tour" ... done
* 68: Cost = 0_1055675, Time = 0.50 sec. 
Writing OUTPUT_TOUR_FILE: "baseline_results/cvrp_lkh/Vrp-Set-Golden-n361/Vrp-Set-Golden-n361-lkh/1.lkh1.tour" ... done
* 70: Cost = 0_1053030, Time = 0.52 sec. 
Writing OUTPUT_TOUR_FILE: "baseline_results/cvrp_lkh/Vrp-Set-Golden-n361/Vrp-Set-Golden-n361-lkh/1.lkh1.tour" ... done
* 93: Cost = 0_1052833, Time = 0.62 sec. 
Writing OUTPUT_TOUR_FILE: "baseline_results/cvrp_lkh/Vrp-Set-Golden-n361/Vrp-Set-Golden-n361-lkh/1.lkh1.tour" ... done
* 97: Cost = 0_1052744, Time = 0.62 sec. 
Writing OUTPUT_TOUR_FILE: "baseline_results/cvrp_lkh/Vrp-Set-Golden-n361/Vrp-Set-Golden-n361-lkh/1.lkh1.tour" ... done
* 102: Cost = 0_1050998, Time = 0.67 sec. 
Writing OUTPUT_TOUR_FILE: "baseline_results/cvrp_lkh/Vrp-Set-Golden-n361/Vrp-Set-Golden-n361-lkh/1.lkh1.tour" ... done
* 118: Cost = 0_1050910, Time = 0.74 sec. 
Writing OUTPUT_TOUR_FILE: "baseline_results/cvrp_lkh/Vrp-Set-Golden-n361/Vrp-Set-Golden-n361-lkh/1.lkh1.tour" ... done
* 145: Cost = 0_1050305, Time = 0.81 sec. 
Writing OUTPUT_TOUR_FILE: "baseline_results/cvrp_lkh/Vrp-Set-Golden-n361/Vrp-Set-Golden-n361-lkh/1.lkh1.tour" ... done
* 166: Cost = 0_1047604, Time = 0.91 sec. 
Writing OUTPUT_TOUR_FILE: "baseline_results/cvrp_lkh/Vrp-Set-Golden-n361/Vrp-Set-Golden-n361-lkh/1.lkh1.tour" ... done
* 179: Cost = 0_1046582, Time = 0.95 sec. 
Writing OUTPUT_TOUR_FILE: "baseline_results/cvrp_lkh/Vrp-Set-Golden-n361/Vrp-Set-Golden-n361-lkh/1.lkh1.tour" ... done
* 188: Cost = 0_1045477, Time = 1.01 sec. 
Writing OUTPUT_TOUR_FILE: "baseline_results/cvrp_lkh/Vrp-Set-Golden-n361/Vrp-Set-Golden-n361-lkh/1.lkh1.tour" ... done
* 193: Cost = 0_1045040, Time = 1.04 sec. 
Writing OUTPUT_TOUR_FILE: "baseline_results/cvrp_lkh/Vrp-Set-Golden-n361/Vrp-Set-Golden-n361-lkh/1.lkh1.tour" ... done
* 197: Cost = 0_1044842, Time = 1.06 sec. 
Writing OUTPUT_TOUR_FILE: "baseline_results/cvrp_lkh/Vrp-Set-Golden-n361/Vrp-Set-Golden-n361-lkh/1.lkh1.tour" ... done
* 222: Cost = 0_1044841, Time = 1.19 sec. 
Writing OUTPUT_TOUR_FILE: "baseline_results/cvrp_lkh/Vrp-Set-Golden-n361/Vrp-Set-Golden-n361-lkh/1.lkh1.tour" ... done
* 234: Cost = 0_1044248, Time = 1.22 sec. 
Writing OUTPUT_TOUR_FILE: "baseline_results/cvrp_lkh/Vrp-Set-Golden-n361/Vrp-Set-Golden-n361-lkh/1.lkh1.tour" ... done
* 235: Cost = 0_1043997, Time = 1.23 sec. 
Writing OUTPUT_TOUR_FILE: "baseline_results/cvrp_lkh/Vrp-Set-Golden-n361/Vrp-Set-Golden-n361-lkh/1.lkh1.tour" ... done
* 248: Cost = 0_1043813, Time = 1.28 sec. 
Writing OUTPUT_TOUR_FILE: "baseline_results/cvrp_lkh/Vrp-Set-Golden-n361/Vrp-Set-Golden-n361-lkh/1.lkh1.tour" ... done
* 256: Cost = 0_1043351, Time = 1.29 sec. 
Writing OUTPUT_TOUR_FILE: "baseline_results/cvrp_lkh/Vrp-Set-Golden-n361/Vrp-Set-Golden-n361-lkh/1.lkh1.tour" ... done
* 269: Cost = 0_1042501, Time = 1.34 sec. 
Writing OUTPUT_TOUR_FILE: "baseline_results/cvrp_lkh/Vrp-Set-Golden-n361/Vrp-Set-Golden-n361-lkh/1.lkh1.tour" ... done
* 280: Cost = 0_1042202, Time = 1.44 sec. 
Writing OUTPUT_TOUR_FILE: "baseline_results/cvrp_lkh/Vrp-Set-Golden-n361/Vrp-Set-Golden-n361-lkh/1.lkh1.tour" ... done
* 287: Cost = 0_1042097, Time = 1.46 sec. 
Writing OUTPUT_TOUR_FILE: "baseline_results/cvrp_lkh/Vrp-Set-Golden-n361/Vrp-Set-Golden-n361-lkh/1.lkh1.tour" ... done
* 292: Cost = 0_1038069, Time = 1.47 sec. 
Writing OUTPUT_TOUR_FILE: "baseline_results/cvrp_lkh/Vrp-Set-Golden-n361/Vrp-Set-Golden-n361-lkh/1.lkh1.tour" ... done
* 294: Cost = 0_1037521, Time = 1.51 sec. 
Writing OUTPUT_TOUR_FILE: "baseline_results/cvrp_lkh/Vrp-Set-Golden-n361/Vrp-Set-Golden-n361-lkh/1.lkh1.tour" ... done
* 301: Cost = 0_1036532, Time = 1.54 sec. 
Writing OUTPUT_TOUR_FILE: "baseline_results/cvrp_lkh/Vrp-Set-Golden-n361/Vrp-Set-Golden-n361-lkh/1.lkh1.tour" ... done
* 309: Cost = 0_1036463, Time = 1.56 sec. 
Writing OUTPUT_TOUR_FILE: "baseline_results/cvrp_lkh/Vrp-Set-Golden-n361/Vrp-Set-Golden-n361-lkh/1.lkh1.tour" ... done
* 408: Cost = 0_1034027, Time = 1.98 sec. 
Writing OUTPUT_TOUR_FILE: "baseline_results/cvrp_lkh/Vrp-Set-Golden-n361/Vrp-Set-Golden-n361-lkh/1.lkh1.tour" ... done
* 426: Cost = 0_1032686, Time = 2.02 sec. 
Writing OUTPUT_TOUR_FILE: "baseline_results/cvrp_lkh/Vrp-Set-Golden-n361/Vrp-Set-Golden-n361-lkh/1.lkh1.tour" ... done
* 492: Cost = 0_1031640, Time = 2.28 sec. 
Writing OUTPUT_TOUR_FILE: "baseline_results/cvrp_lkh/Vrp-Set-Golden-n361/Vrp-Set-Golden-n361-lkh/1.lkh1.tour" ... done
* 587: Cost = 0_1030597, Time = 2.66 sec. 
Writing OUTPUT_TOUR_FILE: "baseline_results/cvrp_lkh/Vrp-Set-Golden-n361/Vrp-Set-Golden-n361-lkh/1.lkh1.tour" ... done
* 641: Cost = 0_1030186, Time = 2.82 sec. 
Writing OUTPUT_TOUR_FILE: "baseline_results/cvrp_lkh/Vrp-Set-Golden-n361/Vrp-Set-Golden-n361-lkh/1.lkh1.tour" ... done
* 694: Cost = 0_1029807, Time = 2.97 sec. 
Writing OUTPUT_TOUR_FILE: "baseline_results/cvrp_lkh/Vrp-Set-Golden-n361/Vrp-Set-Golden-n361-lkh/1.lkh1.tour" ... done
* 708: Cost = 0_1029566, Time = 3.02 sec. 
Writing OUTPUT_TOUR_FILE: "baseline_results/cvrp_lkh/Vrp-Set-Golden-n361/Vrp-Set-Golden-n361-lkh/1.lkh1.tour" ... done
* 715: Cost = 0_1028697, Time = 3.06 sec. 
Writing OUTPUT_TOUR_FILE: "baseline_results/cvrp_lkh/Vrp-Set-Golden-n361/Vrp-Set-Golden-n361-lkh/1.lkh1.tour" ... done
* 752: Cost = 0_1028695, Time = 3.18 sec. 
Writing OUTPUT_TOUR_FILE: "baseline_results/cvrp_lkh/Vrp-Set-Golden-n361/Vrp-Set-Golden-n361-lkh/1.lkh1.tour" ... done
* 754: Cost = 0_1028546, Time = 3.19 sec. 
Writing OUTPUT_TOUR_FILE: "baseline_results/cvrp_lkh/Vrp-Set-Golden-n361/Vrp-Set-Golden-n361-lkh/1.lkh1.tour" ... done
* 764: Cost = 0_1028024, Time = 3.20 sec. 
Writing OUTPUT_TOUR_FILE: "baseline_results/cvrp_lkh/Vrp-Set-Golden-n361/Vrp-Set-Golden-n361-lkh/1.lkh1.tour" ... done
* 765: Cost = 0_1027197, Time = 3.21 sec. 
Writing OUTPUT_TOUR_FILE: "baseline_results/cvrp_lkh/Vrp-Set-Golden-n361/Vrp-Set-Golden-n361-lkh/1.lkh1.tour" ... done
* 793: Cost = 0_1026609, Time = 3.36 sec. 
Writing OUTPUT_TOUR_FILE: "baseline_results/cvrp_lkh/Vrp-Set-Golden-n361/Vrp-Set-Golden-n361-lkh/1.lkh1.tour" ... done
* 797: Cost = 0_1026608, Time = 3.36 sec. 
Writing OUTPUT_TOUR_FILE: "baseline_results/cvrp_lkh/Vrp-Set-Golden-n361/Vrp-Set-Golden-n361-lkh/1.lkh1.tour" ... done
* 805: Cost = 0_1023908, Time = 3.38 sec. 
Writing OUTPUT_TOUR_FILE: "baseline_results/cvrp_lkh/Vrp-Set-Golden-n361/Vrp-Set-Golden-n361-lkh/1.lkh1.tour" ... done
* 811: Cost = 0_1023745, Time = 3.39 sec. 
Writing OUTPUT_TOUR_FILE: "baseline_results/cvrp_lkh/Vrp-Set-Golden-n361/Vrp-Set-Golden-n361-lkh/1.lkh1.tour" ... done
* 826: Cost = 0_1022905, Time = 3.44 sec. 
Writing OUTPUT_TOUR_FILE: "baseline_results/cvrp_lkh/Vrp-Set-Golden-n361/Vrp-Set-Golden-n361-lkh/1.lkh1.tour" ... done
* 1120: Cost = 0_1022904, Time = 4.51 sec. 
Writing OUTPUT_TOUR_FILE: "baseline_results/cvrp_lkh/Vrp-Set-Golden-n361/Vrp-Set-Golden-n361-lkh/1.lkh1.tour" ... done
* 1187: Cost = 0_1022160, Time = 4.72 sec. 
Writing OUTPUT_TOUR_FILE: "baseline_results/cvrp_lkh/Vrp-Set-Golden-n361/Vrp-Set-Golden-n361-lkh/1.lkh1.tour" ... done
* 1277: Cost = 0_1021551, Time = 5.01 sec. 
Writing OUTPUT_TOUR_FILE: "baseline_results/cvrp_lkh/Vrp-Set-Golden-n361/Vrp-Set-Golden-n361-lkh/1.lkh1.tour" ... done
* 1391: Cost = 0_1021073, Time = 5.52 sec. 
Writing OUTPUT_TOUR_FILE: "baseline_results/cvrp_lkh/Vrp-Set-Golden-n361/Vrp-Set-Golden-n361-lkh/1.lkh1.tour" ... done
* 1430: Cost = 0_1020489, Time = 5.61 sec. 
Writing OUTPUT_TOUR_FILE: "baseline_results/cvrp_lkh/Vrp-Set-Golden-n361/Vrp-Set-Golden-n361-lkh/1.lkh1.tour" ... done
* 1458: Cost = 0_1020358, Time = 5.69 sec. 
Writing OUTPUT_TOUR_FILE: "baseline_results/cvrp_lkh/Vrp-Set-Golden-n361/Vrp-Set-Golden-n361-lkh/1.lkh1.tour" ... done
* 1477: Cost = 0_1020276, Time = 5.74 sec. 
Writing OUTPUT_TOUR_FILE: "baseline_results/cvrp_lkh/Vrp-Set-Golden-n361/Vrp-Set-Golden-n361-lkh/1.lkh1.tour" ... done
* 1507: Cost = 0_1019761, Time = 5.87 sec. 
Writing OUTPUT_TOUR_FILE: "baseline_results/cvrp_lkh/Vrp-Set-Golden-n361/Vrp-Set-Golden-n361-lkh/1.lkh1.tour" ... done
* 1717: Cost = 0_1019513, Time = 6.61 sec. 
Writing OUTPUT_TOUR_FILE: "baseline_results/cvrp_lkh/Vrp-Set-Golden-n361/Vrp-Set-Golden-n361-lkh/1.lkh1.tour" ... done
* 1778: Cost = 0_1019344, Time = 6.72 sec. 
Writing OUTPUT_TOUR_FILE: "baseline_results/cvrp_lkh/Vrp-Set-Golden-n361/Vrp-Set-Golden-n361-lkh/1.lkh1.tour" ... done
* 2204: Cost = 0_1018987, Time = 8.34 sec. 
Writing OUTPUT_TOUR_FILE: "baseline_results/cvrp_lkh/Vrp-Set-Golden-n361/Vrp-Set-Golden-n361-lkh/1.lkh1.tour" ... done
* 2250: Cost = 0_1018663, Time = 8.54 sec. 
Writing OUTPUT_TOUR_FILE: "baseline_results/cvrp_lkh/Vrp-Set-Golden-n361/Vrp-Set-Golden-n361-lkh/1.lkh1.tour" ... done
* 2287: Cost = 0_1018638, Time = 8.62 sec. 
Writing OUTPUT_TOUR_FILE: "baseline_results/cvrp_lkh/Vrp-Set-Golden-n361/Vrp-Set-Golden-n361-lkh/1.lkh1.tour" ... done
* 2294: Cost = 0_1017845, Time = 8.66 sec. 
Writing OUTPUT_TOUR_FILE: "baseline_results/cvrp_lkh/Vrp-Set-Golden-n361/Vrp-Set-Golden-n361-lkh/1.lkh1.tour" ... done
* 2469: Cost = 0_1017758, Time = 9.16 sec. 
Writing OUTPUT_TOUR_FILE: "baseline_results/cvrp_lkh/Vrp-Set-Golden-n361/Vrp-Set-Golden-n361-lkh/1.lkh1.tour" ... done
* 2855: Cost = 0_1017237, Time = 10.39 sec. 
Writing OUTPUT_TOUR_FILE: "baseline_results/cvrp_lkh/Vrp-Set-Golden-n361/Vrp-Set-Golden-n361-lkh/1.lkh1.tour" ... done
* 3097: Cost = 0_1016723, Time = 11.20 sec. 
Writing OUTPUT_TOUR_FILE: "baseline_results/cvrp_lkh/Vrp-Set-Golden-n361/Vrp-Set-Golden-n361-lkh/1.lkh1.tour" ... done
* 3659: Cost = 0_1016267, Time = 13.05 sec. 
Writing OUTPUT_TOUR_FILE: "baseline_results/cvrp_lkh/Vrp-Set-Golden-n361/Vrp-Set-Golden-n361-lkh/1.lkh1.tour" ... done
* 3732: Cost = 0_1016138, Time = 13.33 sec. 
Writing OUTPUT_TOUR_FILE: "baseline_results/cvrp_lkh/Vrp-Set-Golden-n361/Vrp-Set-Golden-n361-lkh/1.lkh1.tour" ... done
* 4053: Cost = 0_1015763, Time = 14.46 sec. 
Writing OUTPUT_TOUR_FILE: "baseline_results/cvrp_lkh/Vrp-Set-Golden-n361/Vrp-Set-Golden-n361-lkh/1.lkh1.tour" ... done
* 4275: Cost = 0_1015762, Time = 15.25 sec. 
Writing OUTPUT_TOUR_FILE: "baseline_results/cvrp_lkh/Vrp-Set-Golden-n361/Vrp-Set-Golden-n361-lkh/1.lkh1.tour" ... done
* 4646: Cost = 0_1015761, Time = 16.43 sec. 
Writing OUTPUT_TOUR_FILE: "baseline_results/cvrp_lkh/Vrp-Set-Golden-n361/Vrp-Set-Golden-n361-lkh/1.lkh1.tour" ... done
* 5165: Cost = 0_1015599, Time = 18.53 sec. 
Writing OUTPUT_TOUR_FILE: "baseline_results/cvrp_lkh/Vrp-Set-Golden-n361/Vrp-Set-Golden-n361-lkh/1.lkh1.tour" ... done
* 5182: Cost = 0_1015597, Time = 18.59 sec. 
Writing OUTPUT_TOUR_FILE: "baseline_results/cvrp_lkh/Vrp-Set-Golden-n361/Vrp-Set-Golden-n361-lkh/1.lkh1.tour" ... done
* 5326: Cost = 0_1015595, Time = 19.11 sec. 
Writing OUTPUT_TOUR_FILE: "baseline_results/cvrp_lkh/Vrp-Set-Golden-n361/Vrp-Set-Golden-n361-lkh/1.lkh1.tour" ... done
* 5490: Cost = 0_1015508, Time = 19.68 sec. 
Writing OUTPUT_TOUR_FILE: "baseline_results/cvrp_lkh/Vrp-Set-Golden-n361/Vrp-Set-Golden-n361-lkh/1.lkh1.tour" ... done
* 6322: Cost = 0_1015488, Time = 22.22 sec. 
Writing OUTPUT_TOUR_FILE: "baseline_results/cvrp_lkh/Vrp-Set-Golden-n361/Vrp-Set-Golden-n361-lkh/1.lkh1.tour" ... done
* 6565: Cost = 0_1015317, Time = 23.14 sec. 
Writing OUTPUT_TOUR_FILE: "baseline_results/cvrp_lkh/Vrp-Set-Golden-n361/Vrp-Set-Golden-n361-lkh/1.lkh1.tour" ... done
* 7160: Cost = 0_1015313, Time = 25.19 sec. 
Writing OUTPUT_TOUR_FILE: "baseline_results/cvrp_lkh/Vrp-Set-Golden-n361/Vrp-Set-Golden-n361-lkh/1.lkh1.tour" ... done
Population:
  1: 0_1015313
Run 1: Cost = 0_1015313, Time = 34.68 sec. 

Successes/Runs = 0/1 
Cost.min = 1015313, Cost.avg = 1015313.00, Cost.max = 1015313
Gap.min = 0.0000%, Gap.avg = 0.0000%, Gap.max = 0.0000%
Penalty.min = 0, Penalty.avg = 0.00, Penalty.max = 0
Trials.min = 10000, Trials.avg = 10000.0, Trials.max = 10000
Time.min = 34.68 sec., Time.avg = 34.68 sec., Time.max = 34.68 sec.
Time.total = 34.88 sec.
  Size.min = 40, Size.max = 48, Penalty = 0
  Cost.min = 94240, Cost.max = 158438, Cost.sum = 1015313
Best CVRP solution:
  Cost = 0_1015313

