experiment/data/lkh-res/Vrp-Set-Golden-n361/Vrp-Set-Golden-n361-lkh/1.lkh1.tour
NAME : 1.1015313.tour
COMMENT : Length = 1015313
COMMENT : Found by LKH-3 [Keld Helsgaun] Tue Apr  9 02:05:57 2024
TYPE : TOUR
DIMENSION : 368
TOUR_SECTION
1
2
37
36
72
73
109
74
75
76
77
113
149
185
221
257
293
329
328
292
256
220
184
148
112
111
110
145
144
108
107
70
69
68
67
65
64
63
27
28
29
30
31
32
33
365
19
18
16
15
51
52
88
87
123
122
121
120
119
155
191
227
263
299
335
334
298
262
226
190
154
118
117
81
82
83
84
85
86
50
49
48
47
10
9
8
7
6
5
4
367
34
105
141
177
178
214
250
286
285
321
357
358
322
359
323
287
251
215
216
252
288
324
360
361
325
289
253
217
182
218
254
290
326
327
291
255
219
183
147
146
181
180
179
143
142
106
71
35
363
23
22
58
59
95
94
130
131
167
166
202
238
274
310
346
345
309
273
237
201
200
236
272
308
344
343
307
342
306
270
271
235
234
198
199
163
164
165
129
128
127
91
92
93
57
20
366
66
102
103
104
140
139
138
174
175
176
212
213
249
248
284
320
356
355
319
283
247
211
210
246
282
318
354
353
317
281
245
209
173
172
171
170
134
135
136
137
101
100
99
98
62
26
364
17
53
89
125
124
160
159
158
157
156
192
228
264
300
336
337
301
265
229
193
194
230
266
302
338
339
303
267
231
195
196
232
268
304
340
341
305
269
233
197
161
162
126
90
54
55
56
21
368
14
13
12
11
46
45
44
80
116
115
151
152
153
189
225
261
297
333
332
296
260
224
188
187
223
259
295
331
330
294
258
222
186
150
114
78
79
43
42
41
40
39
38
3
362
25
61
97
133
169
205
206
207
208
244
280
316
352
351
315
279
243
242
278
314
350
349
313
277
241
240
276
312
348
347
311
275
239
203
204
168
132
96
60
24
-1
EOF
